SetGridsize(256, 64,1)
SetCellsize(1.953125e-9, 1.953125e-9, 3e-9)

disablezhanglitorque = true
disableslonczewskitorque = true

Msat  = 800e3
Aex   = 13e-12
alpha = 0.02

m = uniform(1, .1, 0)
minimize()
relax()
//save(m)    // relaxed state

autosave(m, 1e-12)
tableautosave(1e-12)

B_ext = vector(-24.6e-3, 4.3e-3, 0)
run(1.5e-9)
